benchmarks_CP/INST_64x64/50/inst64x64_50_19.dzn
S=8;
start=[|
-1,	-1,	-1,	-1,	-1,	-1,	33,	2,	39,	38,	-1,	41,	7,	-1,	42,	8,	-1,	-1,	60,	31,	62,	58,	-1,	-1,	10,	53,	29,	-1,	-1,	25,	49,	44,	21,	34,	-1,	6,	-1,	5,	-1,	-1,	-1,	17,	32,	-1,	-1,	47,	-1,	12,	23,	45,	20,	28,	-1,	48,	27,	-1,	22,	-1,	-1,	56,	-1,	16,	26,	37|
56,	38,	1,	22,	24,	23,	29,	-1,	55,	49,	-1,	-1,	-1,	58,	-1,	-1,	40,	3,	12,	-1,	39,	43,	50,	2,	-1,	4,	63,	-1,	14,	52,	9,	37,	51,	-1,	57,	8,	20,	-1,	-1,	11,	36,	-1,	42,	53,	-1,	45,	35,	10,	16,	-1,	-1,	33,	-1,	31,	-1,	-1,	-1,	30,	34,	64,	-1,	47,	28,	-1|
-1,	55,	-1,	-1,	-1,	46,	-1,	54,	-1,	56,	-1,	22,	33,	48,	52,	20,	4,	-1,	44,	18,	-1,	45,	53,	-1,	-1,	64,	3,	-1,	-1,	-1,	-1,	40,	-1,	60,	-1,	37,	38,	-1,	-1,	2,	-1,	21,	-1,	-1,	8,	-1,	49,	30,	-1,	10,	13,	61,	-1,	43,	-1,	-1,	19,	58,	29,	-1,	62,	57,	-1,	-1|
44,	45,	19,	-1,	53,	62,	-1,	52,	12,	60,	-1,	-1,	-1,	14,	30,	27,	11,	-1,	-1,	-1,	59,	-1,	-1,	-1,	26,	-1,	-1,	-1,	5,	-1,	-1,	54,	23,	41,	24,	-1,	-1,	63,	49,	50,	-1,	37,	-1,	29,	31,	20,	-1,	61,	15,	-1,	7,	-1,	-1,	17,	-1,	58,	-1,	40,	-1,	9,	43,	48,	-1,	-1|
-1,	8,	-1,	41,	15,	34,	-1,	16,	25,	6,	-1,	51,	29,	-1,	62,	40,	-1,	36,	-1,	63,	-1,	21,	-1,	-1,	-1,	-1,	-1,	-1,	-1,	-1,	-1,	-1,	-1,	-1,	-1,	-1,	-1,	45,	-1,	-1,	44,	-1,	54,	55,	-1,	-1,	-1,	22,	56,	-1,	-1,	-1,	-1,	50,	2,	-1,	5,	-1,	-1,	-1,	24,	-1,	-1,	20|
64,	-1,	-1,	-1,	-1,	35,	48,	-1,	50,	45,	32,	-1,	-1,	-1,	-1,	-1,	-1,	10,	23,	41,	22,	-1,	-1,	-1,	55,	11,	-1,	-1,	-1,	-1,	-1,	6,	46,	15,	-1,	36,	44,	53,	47,	27,	34,	19,	-1,	58,	-1,	7,	-1,	-1,	54,	59,	63,	40,	-1,	-1,	-1,	-1,	4,	2,	42,	-1,	1,	52,	21,	14|
-1,	-1,	37,	32,	-1,	-1,	27,	20,	-1,	-1,	-1,	-1,	-1,	35,	18,	-1,	-1,	48,	-1,	-1,	24,	-1,	-1,	30,	-1,	1,	-1,	-1,	-1,	-1,	-1,	58,	-1,	-1,	22,	25,	-1,	-1,	7,	-1,	9,	4,	62,	51,	16,	-1,	-1,	-1,	-1,	-1,	-1,	-1,	-1,	42,	-1,	-1,	-1,	-1,	54,	41,	61,	46,	44,	-1|
-1,	-1,	-1,	40,	-1,	63,	-1,	31,	-1,	26,	-1,	19,	28,	-1,	-1,	-1,	-1,	-1,	-1,	20,	35,	-1,	-1,	-1,	51,	23,	22,	12,	38,	-1,	48,	2,	9,	4,	-1,	-1,	-1,	-1,	-1,	16,	-1,	27,	-1,	5,	41,	-1,	-1,	-1,	62,	44,	-1,	-1,	-1,	25,	64,	-1,	53,	45,	-1,	33,	-1,	-1,	32,	8|
27,	-1,	43,	-1,	32,	19,	26,	46,	15,	22,	12,	5,	-1,	1,	25,	-1,	3,	30,	-1,	-1,	-1,	-1,	-1,	20,	11,	55,	44,	-1,	-1,	-1,	-1,	-1,	7,	-1,	9,	14,	37,	16,	41,	-1,	10,	60,	-1,	-1,	52,	-1,	-1,	-1,	-1,	36,	24,	50,	-1,	62,	57,	-1,	45,	29,	51,	-1,	48,	-1,	-1,	59|
-1,	9,	-1,	-1,	62,	20,	-1,	53,	-1,	-1,	56,	35,	-1,	46,	-1,	-1,	-1,	58,	16,	7,	25,	-1,	52,	-1,	-1,	-1,	-1,	-1,	37,	-1,	6,	12,	48,	-1,	8,	57,	-1,	-1,	60,	-1,	30,	-1,	-1,	-1,	29,	-1,	-1,	-1,	33,	32,	-1,	-1,	-1,	-1,	43,	-1,	-1,	-1,	5,	-1,	-1,	1,	-1,	31|
-1,	-1,	21,	-1,	59,	44,	15,	25,	-1,	-1,	-1,	-1,	17,	11,	-1,	32,	-1,	-1,	-1,	53,	60,	33,	-1,	6,	62,	51,	-1,	49,	3,	-1,	-1,	-1,	-1,	-1,	2,	-1,	-1,	23,	-1,	10,	50,	36,	-1,	43,	46,	-1,	34,	16,	-1,	47,	22,	-1,	12,	-1,	30,	55,	-1,	4,	-1,	-1,	-1,	-1,	-1,	-1|
-1,	-1,	58,	-1,	1,	-1,	61,	63,	-1,	-1,	-1,	6,	-1,	39,	-1,	-1,	46,	-1,	31,	40,	-1,	-1,	-1,	-1,	20,	-1,	-1,	7,	24,	48,	16,	25,	-1,	-1,	-1,	4,	49,	-1,	36,	62,	-1,	35,	27,	8,	59,	55,	2,	21,	37,	-1,	15,	17,	-1,	-1,	-1,	-1,	43,	-1,	12,	57,	-1,	34,	-1,	-1|
-1,	-1,	-1,	35,	-1,	38,	-1,	-1,	34,	7,	-1,	60,	-1,	-1,	-1,	-1,	-1,	-1,	59,	-1,	55,	15,	17,	32,	27,	-1,	-1,	2,	41,	-1,	50,	-1,	25,	12,	19,	63,	-1,	6,	-1,	53,	-1,	-1,	57,	-1,	-1,	-1,	-1,	-1,	52,	51,	-1,	26,	-1,	-1,	46,	-1,	10,	-1,	-1,	-1,	-1,	-1,	-1,	9|
-1,	-1,	55,	-1,	-1,	51,	-1,	3,	23,	-1,	-1,	-1,	9,	-1,	-1,	30,	-1,	-1,	-1,	-1,	19,	-1,	62,	28,	-1,	59,	-1,	29,	10,	53,	-1,	-1,	-1,	-1,	64,	52,	-1,	18,	-1,	-1,	7,	42,	-1,	13,	-1,	-1,	-1,	-1,	20,	4,	-1,	-1,	-1,	-1,	6,	-1,	-1,	-1,	44,	-1,	41,	-1,	36,	-1|
-1,	-1,	10,	52,	-1,	2,	-1,	11,	49,	-1,	-1,	-1,	-1,	28,	61,	19,	57,	29,	45,	14,	43,	-1,	39,	47,	30,	-1,	21,	36,	-1,	-1,	-1,	-1,	-1,	38,	3,	22,	55,	34,	27,	46,	-1,	12,	53,	-1,	5,	-1,	64,	-1,	-1,	-1,	16,	-1,	59,	1,	25,	-1,	-1,	-1,	-1,	15,	-1,	-1,	40,	-1|
-1,	-1,	49,	48,	50,	-1,	8,	5,	-1,	-1,	-1,	-1,	24,	-1,	55,	-1,	-1,	-1,	-1,	64,	-1,	35,	-1,	56,	61,	-1,	-1,	38,	57,	-1,	-1,	15,	1,	26,	51,	-1,	30,	-1,	-1,	44,	58,	31,	18,	54,	-1,	40,	25,	11,	21,	-1,	10,	-1,	28,	-1,	-1,	3,	-1,	-1,	-1,	32,	-1,	39,	27,	62|
-1,	3,	18,	60,	17,	31,	-1,	23,	-1,	20,	39,	-1,	-1,	33,	35,	-1,	38,	45,	41,	-1,	58,	-1,	-1,	-1,	-1,	40,	51,	-1,	54,	-1,	-1,	-1,	-1,	63,	47,	27,	-1,	-1,	-1,	52,	-1,	-1,	-1,	-1,	25,	-1,	-1,	5,	-1,	-1,	-1,	29,	-1,	-1,	-1,	-1,	30,	-1,	48,	-1,	-1,	-1,	-1,	46|
19,	-1,	-1,	20,	28,	-1,	22,	15,	-1,	62,	-1,	-1,	45,	-1,	16,	51,	-1,	21,	35,	-1,	-1,	-1,	-1,	26,	-1,	38,	61,	3,	6,	7,	-1,	10,	-1,	54,	46,	-1,	23,	39,	-1,	1,	37,	55,	50,	63,	47,	29,	-1,	53,	-1,	30,	-1,	-1,	25,	-1,	60,	-1,	-1,	-1,	-1,	-1,	58,	27,	31,	43|
-1,	4,	32,	63,	45,	-1,	25,	-1,	38,	-1,	-1,	27,	-1,	-1,	5,	41,	-1,	-1,	39,	-1,	28,	29,	37,	46,	-1,	-1,	-1,	-1,	47,	36,	-1,	43,	33,	-1,	62,	-1,	18,	-1,	10,	-1,	3,	-1,	-1,	19,	-1,	-1,	30,	-1,	12,	-1,	21,	35,	-1,	-1,	48,	17,	-1,	-1,	-1,	-1,	57,	-1,	-1,	60|
53,	24,	48,	57,	27,	-1,	47,	-1,	54,	52,	-1,	-1,	15,	-1,	-1,	-1,	-1,	12,	-1,	-1,	5,	44,	16,	-1,	-1,	30,	25,	21,	23,	-1,	-1,	-1,	-1,	14,	40,	-1,	-1,	-1,	51,	32,	-1,	-1,	34,	62,	61,	4,	11,	-1,	-1,	-1,	58,	20,	49,	63,	-1,	-1,	39,	55,	38,	42,	64,	-1,	41,	-1|
-1,	62,	-1,	-1,	-1,	-1,	-1,	-1,	30,	10,	-1,	21,	-1,	31,	-1,	47,	-1,	59,	-1,	-1,	2,	-1,	25,	3,	15,	57,	-1,	-1,	-1,	-1,	-1,	-1,	-1,	-1,	17,	-1,	-1,	-1,	-1,	42,	-1,	-1,	-1,	49,	23,	-1,	22,	51,	46,	54,	34,	-1,	-1,	-1,	19,	27,	40,	-1,	-1,	-1,	6,	4,	-1,	16|
-1,	-1,	-1,	38,	-1,	-1,	30,	-1,	18,	24,	49,	-1,	26,	-1,	57,	14,	-1,	-1,	55,	19,	20,	64,	15,	-1,	42,	-1,	-1,	-1,	62,	-1,	-1,	50,	59,	-1,	21,	-1,	4,	22,	6,	-1,	-1,	10,	-1,	48,	-1,	-1,	-1,	-1,	51,	61,	-1,	44,	-1,	-1,	5,	47,	-1,	54,	45,	-1,	8,	-1,	29,	-1|
-1,	37,	8,	21,	49,	6,	-1,	-1,	-1,	44,	7,	-1,	-1,	-1,	1,	-1,	-1,	-1,	-1,	24,	33,	47,	-1,	4,	18,	-1,	-1,	27,	-1,	-1,	-1,	46,	64,	-1,	48,	-1,	-1,	-1,	-1,	34,	-1,	-1,	-1,	14,	39,	54,	9,	-1,	-1,	-1,	-1,	52,	2,	32,	-1,	-1,	63,	-1,	-1,	-1,	25,	-1,	12,	10|
54,	59,	-1,	50,	36,	12,	-1,	34,	-1,	63,	-1,	55,	53,	23,	-1,	-1,	14,	40,	22,	-1,	32,	-1,	10,	51,	49,	-1,	13,	-1,	9,	-1,	4,	48,	29,	30,	28,	-1,	7,	-1,	-1,	37,	6,	-1,	52,	46,	-1,	-1,	-1,	1,	-1,	31,	-1,	11,	56,	33,	18,	-1,	20,	35,	17,	-1,	15,	-1,	-1,	44|
-1,	13,	53,	19,	44,	-1,	50,	21,	1,	4,	-1,	-1,	-1,	25,	-1,	59,	60,	-1,	-1,	-1,	-1,	57,	-1,	-1,	-1,	6,	2,	55,	39,	-1,	31,	51,	-1,	-1,	-1,	54,	56,	-1,	-1,	-1,	-1,	58,	-1,	34,	-1,	64,	-1,	41,	22,	-1,	35,	12,	63,	49,	-1,	45,	-1,	38,	28,	36,	20,	10,	-1,	61|
-1,	56,	-1,	-1,	57,	-1,	-1,	-1,	48,	61,	45,	-1,	63,	-1,	-1,	53,	-1,	-1,	38,	12,	-1,	31,	28,	-1,	47,	3,	26,	-1,	-1,	27,	-1,	18,	-1,	-1,	-1,	21,	-1,	-1,	-1,	24,	-1,	-1,	-1,	-1,	-1,	33,	-1,	-1,	25,	-1,	-1,	9,	-1,	-1,	-1,	-1,	-1,	-1,	-1,	-1,	46,	58,	17,	-1|
16,	7,	46,	-1,	-1,	26,	20,	-1,	-1,	37,	-1,	-1,	-1,	-1,	-1,	-1,	-1,	-1,	-1,	52,	47,	11,	-1,	58,	28,	-1,	57,	-1,	-1,	-1,	32,	63,	22,	-1,	25,	-1,	8,	-1,	-1,	31,	42,	39,	61,	35,	44,	-1,	-1,	-1,	-1,	-1,	-1,	-1,	30,	53,	-1,	-1,	62,	13,	-1,	-1,	-1,	55,	45,	-1|
-1,	-1,	14,	-1,	-1,	60,	3,	6,	-1,	16,	-1,	-1,	-1,	19,	33,	57,	22,	61,	-1,	-1,	44,	-1,	40,	8,	13,	46,	-1,	-1,	7,	42,	-1,	-1,	-1,	-1,	18,	-1,	17,	58,	11,	-1,	-1,	-1,	56,	27,	28,	-1,	32,	50,	29,	55,	-1,	15,	-1,	-1,	1,	-1,	9,	-1,	37,	63,	21,	-1,	-1,	35|
62,	-1,	-1,	-1,	-1,	59,	10,	-1,	26,	32,	42,	58,	-1,	-1,	36,	-1,	13,	-1,	46,	51,	14,	-1,	-1,	-1,	23,	43,	-1,	22,	-1,	-1,	52,	17,	44,	-1,	-1,	-1,	-1,	12,	4,	63,	48,	-1,	20,	-1,	54,	11,	55,	37,	3,	39,	27,	-1,	-1,	7,	56,	8,	-1,	6,	-1,	-1,	30,	25,	15,	-1|
34,	-1,	22,	-1,	63,	28,	-1,	-1,	6,	51,	55,	54,	-1,	38,	29,	-1,	20,	-1,	56,	-1,	9,	-1,	-1,	15,	8,	36,	12,	58,	-1,	35,	25,	16,	-1,	57,	49,	-1,	-1,	-1,	50,	-1,	-1,	62,	-1,	-1,	-1,	-1,	52,	-1,	-1,	-1,	48,	-1,	-1,	59,	33,	43,	60,	24,	3,	-1,	-1,	31,	7,	-1|
-1,	-1,	-1,	47,	-1,	-1,	31,	-1,	-1,	2,	-1,	-1,	10,	-1,	-1,	-1,	-1,	35,	-1,	-1,	64,	-1,	19,	16,	50,	-1,	24,	-1,	-1,	29,	-1,	60,	55,	1,	45,	42,	9,	-1,	59,	-1,	-1,	49,	-1,	6,	-1,	22,	-1,	25,	-1,	23,	54,	-1,	-1,	28,	61,	46,	-1,	-1,	27,	51,	-1,	56,	-1,	33|
25,	52,	36,	-1,	18,	1,	39,	-1,	56,	35,	44,	31,	47,	12,	7,	-1,	-1,	-1,	17,	-1,	-1,	53,	-1,	-1,	-1,	-1,	62,	30,	40,	45,	19,	33,	-1,	-1,	-1,	-1,	-1,	-1,	3,	-1,	-1,	-1,	-1,	-1,	51,	-1,	63,	29,	-1,	14,	-1,	37,	-1,	13,	16,	26,	59,	-1,	-1,	43,	32,	-1,	22,	-1|
9,	44,	6,	62,	-1,	32,	23,	36,	40,	34,	63,	-1,	-1,	47,	51,	-1,	12,	41,	-1,	-1,	57,	-1,	33,	22,	37,	42,	-1,	-1,	43,	49,	-1,	20,	-1,	64,	-1,	-1,	-1,	7,	-1,	60,	17,	29,	-1,	31,	50,	-1,	-1,	59,	10,	-1,	-1,	-1,	26,	39,	-1,	19,	-1,	1,	-1,	-1,	-1,	-1,	30,	-1|
45,	-1,	52,	-1,	-1,	-1,	-1,	-1,	-1,	46,	-1,	44,	-1,	60,	-1,	-1,	17,	26,	50,	62,	-1,	-1,	30,	34,	29,	-1,	-1,	25,	13,	59,	39,	-1,	4,	-1,	37,	-1,	36,	-1,	-1,	-1,	-1,	20,	19,	32,	58,	51,	-1,	43,	-1,	15,	-1,	38,	11,	-1,	9,	40,	31,	7,	33,	-1,	-1,	64,	-1,	-1|
20,	16,	-1,	58,	-1,	-1,	-1,	-1,	-1,	-1,	54,	23,	21,	-1,	-1,	-1,	-1,	-1,	32,	42,	-1,	18,	-1,	-1,	-1,	-1,	-1,	-1,	-1,	-1,	-1,	9,	35,	-1,	-1,	59,	22,	27,	14,	-1,	-1,	25,	-1,	60,	-1,	-1,	28,	15,	45,	5,	56,	1,	29,	41,	49,	62,	24,	17,	-1,	12,	19,	26,	-1,	36|
14,	-1,	63,	-1,	43,	-1,	-1,	-1,	-1,	31,	29,	-1,	11,	26,	-1,	35,	47,	2,	51,	-1,	7,	20,	46,	37,	36,	34,	-1,	1,	-1,	19,	-1,	-1,	-1,	-1,	55,	45,	15,	-1,	16,	25,	-1,	30,	-1,	-1,	56,	9,	-1,	54,	28,	-1,	18,	-1,	32,	-1,	-1,	50,	52,	57,	-1,	-1,	-1,	42,	10,	23|
-1,	-1,	-1,	7,	-1,	40,	-1,	-1,	-1,	-1,	-1,	24,	52,	-1,	-1,	-1,	-1,	60,	11,	-1,	-1,	-1,	-1,	-1,	-1,	-1,	-1,	31,	32,	62,	23,	57,	-1,	43,	-1,	19,	-1,	26,	21,	49,	16,	22,	-1,	61,	-1,	-1,	36,	-1,	59,	33,	-1,	51,	42,	46,	-1,	48,	58,	20,	13,	44,	38,	8,	-1,	-1|
-1,	-1,	28,	-1,	2,	18,	64,	19,	-1,	-1,	-1,	-1,	6,	-1,	13,	1,	45,	55,	58,	49,	53,	59,	-1,	52,	38,	-1,	-1,	-1,	22,	-1,	-1,	30,	-1,	61,	39,	50,	40,	29,	62,	-1,	24,	-1,	-1,	7,	-1,	34,	42,	23,	-1,	27,	25,	54,	60,	-1,	-1,	16,	-1,	14,	4,	-1,	37,	-1,	11,	51|
38,	25,	-1,	42,	-1,	10,	-1,	33,	-1,	-1,	-1,	18,	-1,	20,	53,	58,	-1,	63,	40,	56,	36,	-1,	-1,	-1,	-1,	8,	28,	-1,	60,	-1,	61,	64,	-1,	-1,	-1,	-1,	31,	-1,	5,	-1,	-1,	-1,	21,	37,	48,	-1,	57,	-1,	4,	52,	-1,	-1,	-1,	30,	7,	44,	55,	22,	46,	49,	9,	-1,	54,	-1|
-1,	17,	27,	24,	-1,	48,	21,	29,	7,	50,	-1,	56,	16,	-1,	49,	38,	19,	-1,	-1,	-1,	13,	-1,	3,	43,	2,	52,	-1,	4,	33,	54,	-1,	26,	-1,	-1,	58,	-1,	51,	-1,	28,	57,	11,	6,	-1,	41,	-1,	-1,	-1,	-1,	63,	12,	23,	-1,	22,	20,	31,	53,	61,	-1,	47,	-1,	-1,	-1,	34,	39|
-1,	64,	17,	-1,	-1,	-1,	49,	-1,	63,	14,	-1,	16,	25,	-1,	-1,	12,	-1,	-1,	-1,	28,	-1,	-1,	-1,	11,	-1,	-1,	-1,	-1,	-1,	-1,	-1,	-1,	-1,	31,	-1,	55,	42,	-1,	32,	-1,	-1,	61,	37,	-1,	6,	-1,	-1,	47,	48,	-1,	57,	-1,	52,	-1,	-1,	21,	34,	51,	50,	-1,	-1,	-1,	8,	-1|
-1,	-1,	-1,	-1,	29,	-1,	-1,	-1,	-1,	-1,	-1,	4,	-1,	40,	26,	-1,	30,	-1,	-1,	-1,	-1,	12,	47,	-1,	-1,	-1,	-1,	48,	28,	-1,	36,	62,	49,	59,	-1,	-1,	-1,	2,	35,	-1,	-1,	-1,	-1,	-1,	-1,	-1,	-1,	27,	-1,	34,	45,	-1,	44,	-1,	-1,	-1,	-1,	10,	55,	-1,	13,	-1,	-1,	19|
23,	-1,	-1,	-1,	-1,	42,	38,	-1,	59,	-1,	17,	-1,	-1,	-1,	-1,	-1,	63,	32,	33,	44,	-1,	-1,	55,	35,	31,	-1,	-1,	54,	-1,	13,	-1,	-1,	62,	46,	50,	-1,	-1,	48,	-1,	-1,	12,	-1,	-1,	11,	53,	-1,	-1,	8,	-1,	37,	-1,	-1,	6,	3,	-1,	60,	47,	18,	30,	-1,	-1,	-1,	57,	27|
-1,	48,	-1,	-1,	-1,	-1,	57,	-1,	51,	1,	-1,	-1,	35,	32,	-1,	10,	-1,	27,	25,	45,	-1,	-1,	-1,	-1,	43,	-1,	50,	26,	52,	14,	-1,	39,	-1,	-1,	-1,	-1,	-1,	-1,	23,	17,	64,	2,	55,	21,	36,	5,	29,	58,	13,	-1,	28,	-1,	4,	19,	62,	-1,	6,	-1,	-1,	37,	-1,	-1,	16,	-1|
5,	20,	35,	-1,	40,	25,	19,	-1,	-1,	28,	43,	62,	-1,	7,	23,	9,	-1,	-1,	-1,	-1,	-1,	-1,	-1,	31,	-1,	63,	11,	17,	46,	8,	64,	38,	-1,	-1,	4,	-1,	10,	-1,	-1,	26,	32,	-1,	-1,	-1,	-1,	-1,	44,	39,	-1,	-1,	-1,	-1,	55,	47,	-1,	-1,	-1,	-1,	14,	-1,	33,	-1,	-1,	21|
-1,	14,	45,	4,	-1,	8,	-1,	-1,	-1,	-1,	-1,	47,	48,	-1,	31,	55,	-1,	-1,	49,	17,	-1,	-1,	22,	13,	-1,	9,	-1,	-1,	-1,	-1,	-1,	7,	-1,	-1,	44,	-1,	-1,	3,	24,	-1,	-1,	-1,	-1,	-1,	-1,	30,	-1,	62,	5,	25,	-1,	46,	-1,	29,	40,	15,	-1,	11,	-1,	52,	42,	-1,	-1,	28|
55,	-1,	-1,	-1,	-1,	-1,	12,	-1,	45,	42,	13,	30,	8,	37,	-1,	46,	56,	14,	-1,	-1,	54,	-1,	6,	-1,	-1,	44,	35,	-1,	29,	-1,	-1,	27,	40,	53,	-1,	-1,	-1,	21,	-1,	-1,	-1,	-1,	-1,	25,	4,	-1,	-1,	-1,	-1,	-1,	33,	-1,	20,	-1,	17,	-1,	3,	-1,	-1,	39,	59,	-1,	-1,	-1|
-1,	28,	54,	-1,	-1,	15,	2,	-1,	-1,	-1,	5,	-1,	-1,	-1,	20,	-1,	43,	-1,	-1,	-1,	-1,	19,	9,	64,	41,	47,	-1,	23,	-1,	-1,	-1,	42,	45,	58,	-1,	34,	-1,	-1,	30,	-1,	-1,	-1,	22,	26,	-1,	-1,	-1,	13,	35,	-1,	51,	16,	24,	11,	-1,	-1,	48,	44,	-1,	29,	31,	12,	38,	-1|
15,	41,	-1,	-1,	19,	-1,	44,	12,	-1,	17,	-1,	-1,	-1,	42,	-1,	-1,	-1,	23,	29,	16,	-1,	-1,	1,	24,	64,	-1,	-1,	33,	-1,	-1,	63,	11,	-1,	-1,	-1,	7,	27,	-1,	-1,	-1,	2,	52,	13,	22,	34,	-1,	-1,	14,	-1,	28,	-1,	-1,	54,	8,	51,	-1,	18,	43,	-1,	-1,	-1,	-1,	-1,	-1|
-1,	49,	-1,	10,	-1,	-1,	-1,	-1,	-1,	39,	-1,	-1,	34,	54,	32,	23,	-1,	-1,	-1,	47,	-1,	60,	59,	40,	-1,	-1,	-1,	14,	-1,	-1,	13,	-1,	43,	3,	-1,	64,	6,	-1,	-1,	41,	8,	33,	46,	50,	-1,	-1,	26,	18,	-1,	57,	55,	-1,	-1,	-1,	44,	-1,	15,	12,	-1,	-1,	45,	36,	42,	-1|
-1,	21,	-1,	64,	-1,	53,	-1,	-1,	20,	15,	33,	-1,	44,	43,	58,	48,	-1,	-1,	-1,	30,	-1,	54,	-1,	63,	60,	26,	-1,	-1,	-1,	-1,	34,	-1,	-1,	37,	-1,	61,	2,	-1,	9,	29,	51,	41,	-1,	-1,	-1,	-1,	-1,	55,	-1,	40,	3,	-1,	18,	10,	52,	-1,	8,	23,	-1,	13,	-1,	62,	46,	25|
51,	11,	-1,	29,	-1,	54,	-1,	-1,	19,	-1,	28,	10,	-1,	49,	24,	-1,	-1,	-1,	-1,	2,	31,	13,	-1,	-1,	-1,	-1,	-1,	40,	-1,	50,	-1,	-1,	47,	17,	1,	33,	52,	-1,	-1,	35,	61,	9,	-1,	39,	60,	-1,	-1,	20,	36,	-1,	38,	43,	7,	-1,	41,	-1,	27,	34,	16,	-1,	-1,	14,	48,	-1|
-1,	-1,	60,	43,	39,	37,	-1,	-1,	-1,	9,	51,	8,	-1,	50,	-1,	-1,	21,	19,	-1,	38,	34,	-1,	-1,	-1,	-1,	27,	32,	10,	-1,	-1,	3,	-1,	16,	-1,	-1,	26,	63,	11,	15,	-1,	54,	53,	29,	-1,	-1,	42,	-1,	-1,	-1,	58,	-1,	-1,	45,	56,	22,	-1,	-1,	-1,	57,	59,	49,	40,	-1,	-1|
24,	-1,	-1,	-1,	56,	50,	-1,	42,	-1,	13,	-1,	-1,	38,	45,	-1,	-1,	-1,	52,	-1,	-1,	15,	-1,	-1,	-1,	-1,	-1,	8,	-1,	-1,	57,	-1,	19,	-1,	-1,	-1,	46,	54,	14,	-1,	51,	-1,	-1,	-1,	-1,	-1,	58,	-1,	-1,	-1,	20,	6,	-1,	-1,	61,	-1,	-1,	-1,	31,	10,	-1,	22,	29,	-1,	-1|
-1,	-1,	-1,	-1,	-1,	-1,	-1,	-1,	57,	-1,	-1,	7,	-1,	61,	56,	6,	10,	-1,	-1,	8,	-1,	48,	-1,	-1,	-1,	17,	-1,	-1,	-1,	-1,	43,	29,	32,	-1,	-1,	39,	-1,	25,	55,	-1,	21,	-1,	38,	-1,	62,	44,	-1,	28,	-1,	42,	5,	-1,	33,	-1,	-1,	-1,	-1,	-1,	24,	-1,	53,	-1,	51,	-1|
-1,	47,	3,	8,	20,	-1,	6,	38,	60,	53,	-1,	-1,	-1,	-1,	-1,	-1,	42,	37,	-1,	-1,	-1,	46,	-1,	-1,	16,	-1,	-1,	-1,	35,	-1,	1,	-1,	24,	23,	-1,	-1,	28,	19,	31,	-1,	49,	45,	4,	-1,	-1,	56,	27,	36,	30,	13,	17,	-1,	-1,	15,	-1,	-1,	-1,	61,	-1,	-1,	-1,	-1,	-1,	-1|
-1,	-1,	-1,	-1,	60,	-1,	-1,	-1,	-1,	12,	-1,	-1,	-1,	-1,	45,	-1,	15,	56,	-1,	-1,	-1,	22,	14,	-1,	44,	-1,	-1,	-1,	-1,	-1,	-1,	-1,	-1,	-1,	-1,	-1,	50,	-1,	42,	5,	39,	46,	24,	59,	-1,	-1,	53,	26,	38,	21,	19,	2,	37,	-1,	-1,	1,	-1,	27,	41,	4,	3,	13,	63,	-1|
-1,	-1,	-1,	-1,	47,	-1,	-1,	4,	-1,	-1,	-1,	-1,	-1,	-1,	-1,	-1,	-1,	-1,	37,	-1,	10,	-1,	-1,	17,	-1,	54,	-1,	13,	11,	-1,	-1,	3,	36,	-1,	32,	-1,	-1,	46,	25,	14,	35,	15,	30,	-1,	20,	-1,	21,	-1,	60,	-1,	-1,	49,	23,	-1,	-1,	33,	-1,	59,	-1,	5,	34,	-1,	-1,	45|
12,	58,	-1,	46,	7,	-1,	28,	-1,	10,	57,	-1,	9,	49,	-1,	-1,	17,	-1,	-1,	-1,	-1,	-1,	-1,	-1,	62,	33,	32,	42,	37,	-1,	5,	-1,	34,	-1,	-1,	-1,	-1,	41,	64,	-1,	-1,	55,	-1,	11,	-1,	19,	1,	-1,	48,	39,	63,	-1,	-1,	15,	26,	-1,	14,	-1,	-1,	-1,	60,	51,	23,	43,	-1|
41,	26,	-1,	53,	48,	-1,	5,	-1,	37,	36,	4,	25,	-1,	-1,	-1,	64,	-1,	28,	8,	13,	-1,	3,	-1,	-1,	40,	-1,	-1,	-1,	30,	46,	-1,	-1,	-1,	7,	-1,	-1,	-1,	-1,	-1,	21,	23,	51,	9,	-1,	49,	38,	58,	-1,	61,	18,	-1,	-1,	-1,	-1,	-1,	12,	33,	16,	-1,	-1,	10,	-1,	-1,	-1|
-1,	-1,	-1,	-1,	-1,	21,	1,	-1,	32,	5,	60,	50,	56,	-1,	-1,	15,	-1,	-1,	-1,	33,	-1,	-1,	-1,	12,	25,	-1,	55,	28,	51,	-1,	-1,	4,	-1,	18,	29,	-1,	34,	37,	39,	23,	45,	-1,	-1,	-1,	-1,	-1,	61,	57,	-1,	-1,	53,	-1,	9,	-1,	54,	22,	-1,	26,	-1,	-1,	52,	30,	64,	-1|
36,	-1,	-1,	6,	-1,	64,	54,	18,	28,	-1,	35,	-1,	-1,	-1,	-1,	52,	-1,	-1,	21,	-1,	-1,	-1,	-1,	-1,	-1,	60,	-1,	16,	56,	-1,	15,	-1,	53,	-1,	-1,	-1,	57,	-1,	12,	58,	-1,	47,	25,	-1,	17,	-1,	-1,	-1,	-1,	46,	31,	59,	13,	45,	-1,	-1,	-1,	-1,	7,	8,	-1,	-1,	62,	42|
-1,	-1,	-1,	37,	-1,	45,	9,	-1,	46,	-1,	14,	42,	58,	44,	47,	54,	-1,	11,	24,	55,	-1,	-1,	51,	-1,	-1,	-1,	-1,	35,	-1,	26,	21,	-1,	-1,	27,	-1,	-1,	-1,	-1,	17,	-1,	22,	5,	40,	56,	43,	28,	-1,	-1,	64,	3,	32,	57,	8,	-1,	4,	-1,	36,	-1,	61,	6,	-1,	-1,	-1,	1|
42,	31,	16,	-1,	23,	-1,	-1,	32,	22,	-1,	18,	38,	55,	-1,	-1,	-1,	-1,	46,	-1,	4,	-1,	39,	-1,	53,	-1,	48,	-1,	19,	-1,	12,	-1,	49,	3,	24,	-1,	1,	45,	43,	44,	61,	29,	-1,	-1,	36,	-1,	-1,	10,	-1,	27,	62,	-1,	25,	-1,	-1,	-1,	51,	-1,	-1,	-1,	35,	47,	-1,	9,	50|];
