sudoku-ls/benchmarks_LEQ/INST_64x64/50/inst64x64_50_19.txt
8
1
59	57	-1	11	-1	-1	-1	-1	-1	-1	1	41	-1	-1	42	8	-1	-1	-1	31	-1	58	13	-1	10	53	-1	-1	-1	25	49	-1	21	34	-1	-1	35	5	-1	55	-1	-1	32	-1	-1	47	-1	12	-1	45	20	28	46	48	-1	-1	-1	50	-1	56	-1	16	-1	-1
-1	-1	1	-1	-1	-1	29	-1	-1	49	-1	-1	-1	-1	54	-1	40	-1	12	25	39	-1	50	-1	21	-1	-1	-1	14	52	-1	37	51	-1	-1	8	20	-1	-1	-1	-1	-1	42	-1	-1	-1	-1	-1	-1	-1	-1	-1	-1	31	-1	18	13	30	34	-1	27	-1	-1	6
-1	55	47	-1	6	46	-1	-1	-1	-1	-1	22	-1	-1	52	-1	-1	-1	44	-1	16	-1	53	-1	-1	64	-1	32	-1	41	27	40	39	-1	-1	37	38	31	26	2	63	21	23	1	-1	-1	49	30	24	-1	13	-1	-1	43	35	-1	19	-1	29	11	-1	-1	-1	-1
44	-1	-1	-1	53	-1	-1	52	12	-1	10	-1	4	14	-1	27	-1	-1	6	-1	59	28	-1	38	-1	-1	46	47	-1	-1	-1	54	-1	41	-1	18	3	63	-1	50	57	37	-1	29	-1	-1	33	61	-1	-1	-1	8	21	17	36	58	51	-1	-1	9	43	48	35	-1
58	8	-1	41	15	34	17	-1	-1	-1	61	-1	29	-1	-1	40	-1	-1	-1	63	-1	21	-1	49	-1	-1	31	60	-1	-1	35	13	14	42	-1	32	-1	-1	48	59	-1	-1	54	-1	-1	26	-1	-1	-1	9	47	4	-1	50	2	37	5	-1	-1	10	-1	3	-1	-1
64	30	-1	25	26	35	48	-1	-1	-1	-1	37	13	16	-1	43	-1	-1	-1	-1	22	17	29	-1	55	-1	39	-1	20	-1	62	-1	-1	15	-1	36	44	53	-1	27	34	-1	28	-1	-1	7	56	60	54	59	63	-1	51	-1	-1	-1	4	-1	-1	31	1	-1	21	14
-1	60	37	-1	10	-1	-1	20	-1	23	-1	57	-1	35	-1	2	8	48	5	26	24	55	-1	30	-1	-1	-1	15	-1	-1	59	58	28	-1	22	-1	64	56	-1	13	-1	4	-1	51	16	-1	39	40	-1	-1	-1	-1	14	42	29	6	12	63	54	41	61	46	44	-1
3	36	50	-1	-1	-1	-1	31	17	-1	34	19	28	-1	-1	24	-1	-1	-1	20	-1	61	54	57	51	-1	22	12	-1	-1	48	-1	-1	-1	30	-1	-1	-1	-1	16	-1	27	59	5	-1	43	6	-1	-1	44	-1	55	-1	25	-1	-1	-1	45	-1	33	-1	-1	-1	8
27	34	-1	18	32	-1	-1	-1	15	-1	-1	-1	-1	-1	25	13	3	30	61	21	38	2	8	20	11	55	44	-1	64	4	-1	35	-1	40	9	14	37	16	41	-1	10	-1	39	33	-1	-1	-1	56	31	36	24	-1	58	62	57	49	-1	-1	51	-1	48	-1	-1	-1
-1	-1	-1	-1	62	-1	36	-1	2	21	-1	-1	-1	46	10	3	-1	58	16	7	25	-1	-1	-1	-1	45	34	18	37	-1	6	12	48	-1	-1	-1	-1	50	-1	47	30	44	-1	28	29	15	-1	-1	-1	32	-1	41	61	-1	43	-1	-1	-1	5	-1	14	-1	13	-1
-1	39	21	56	-1	-1	15	-1	14	64	-1	45	17	-1	-1	-1	-1	42	-1	-1	60	33	-1	6	62	51	1	-1	3	40	28	-1	31	35	-1	-1	-1	23	-1	10	50	36	26	43	-1	63	34	-1	-1	47	22	-1	12	-1	-1	55	-1	-1	52	7	-1	61	20	-1
-1	-1	-1	-1	-1	41	61	-1	-1	-1	53	-1	-1	-1	-1	-1	46	9	31	-1	50	-1	-1	10	20	13	52	7	24	48	-1	25	-1	-1	-1	4	-1	-1	36	62	19	-1	-1	8	-1	55	-1	21	-1	-1	15	17	-1	-1	-1	-1	-1	-1	12	57	11	-1	3	22
-1	54	-1	-1	-1	-1	45	28	-1	-1	-1	60	42	4	48	36	44	22	59	-1	55	15	-1	32	-1	-1	-1	2	41	43	-1	47	25	-1	19	-1	21	-1	-1	-1	14	-1	-1	20	-1	-1	62	-1	-1	-1	8	-1	40	-1	-1	-1	-1	-1	56	-1	-1	33	49	9
-1	40	55	14	-1	51	-1	3	23	8	-1	33	9	-1	50	-1	-1	54	1	-1	-1	-1	62	-1	-1	-1	-1	-1	-1	-1	-1	32	-1	-1	-1	-1	39	-1	61	43	-1	42	48	13	22	17	-1	38	20	-1	60	63	35	-1	6	-1	25	-1	-1	-1	41	37	-1	26
7	-1	10	-1	37	2	-1	11	49	-1	-1	63	62	-1	-1	-1	-1	-1	-1	-1	-1	-1	-1	-1	-1	33	21	-1	26	-1	-1	-1	-1	-1	3	22	-1	34	27	46	-1	12	53	4	5	-1	-1	9	44	48	16	42	-1	1	25	-1	-1	8	35	-1	-1	-1	-1	58
-1	-1	49	-1	50	13	-1	5	52	59	16	-1	24	41	-1	29	23	4	-1	-1	-1	-1	-1	56	61	19	-1	-1	-1	60	14	15	-1	26	51	17	30	20	-1	-1	58	31	18	54	-1	-1	25	-1	21	-1	10	7	-1	34	45	-1	-1	47	6	32	2	39	27	62
-1	-1	18	60	-1	-1	55	23	13	20	-1	-1	32	-1	35	4	38	45	-1	34	-1	56	-1	61	1	-1	51	-1	-1	-1	-1	14	19	-1	-1	27	11	-1	-1	52	-1	-1	16	64	25	-1	8	5	43	6	-1	29	-1	-1	-1	7	-1	62	-1	-1	-1	-1	-1	-1
19	5	-1	20	28	-1	22	-1	42	-1	-1	36	-1	34	-1	51	-1	-1	35	57	-1	-1	49	-1	-1	-1	-1	-1	-1	7	8	10	12	-1	46	44	-1	39	-1	1	-1	55	50	-1	47	-1	24	-1	-1	-1	-1	-1	25	64	-1	-1	56	-1	-1	18	-1	27	-1	-1
-1	-1	32	63	-1	52	-1	-1	38	-1	8	-1	59	9	5	-1	1	-1	39	-1	-1	29	37	-1	-1	-1	58	-1	-1	36	20	43	33	-1	62	-1	-1	24	10	15	-1	40	-1	-1	-1	-1	-1	2	-1	-1	-1	-1	-1	55	-1	-1	7	-1	23	-1	57	51	-1	60
-1	24	-1	-1	27	7	-1	56	54	-1	46	2	-1	-1	-1	22	9	12	-1	-1	5	44	16	50	17	-1	-1	-1	-1	37	29	45	60	14	-1	-1	-1	-1	-1	-1	-1	18	-1	-1	61	-1	-1	-1	-1	1	-1	-1	-1	63	10	28	-1	55	-1	42	-1	-1	41	13
-1	-1	-1	9	14	-1	35	64	30	-1	48	-1	37	31	43	-1	7	59	18	-1	2	63	-1	3	15	57	-1	-1	-1	-1	11	-1	58	36	17	-1	13	-1	-1	-1	20	32	44	49	23	12	22	-1	-1	-1	34	45	-1	24	-1	27	-1	-1	53	61	6	4	1	16
2	-1	-1	-1	46	-1	30	-1	-1	24	49	-1	26	56	57	-1	-1	-1	-1	19	-1	64	15	23	42	12	33	-1	-1	-1	60	50	-1	25	21	43	4	22	-1	-1	-1	10	-1	-1	27	-1	7	-1	-1	-1	-1	-1	3	-1	-1	-1	-1	54	-1	34	8	32	-1	-1
-1	-1	-1	-1	49	6	58	51	-1	44	7	-1	-1	-1	1	-1	62	-1	30	-1	33	47	11	-1	18	35	-1	27	-1	31	-1	-1	-1	55	48	-1	-1	41	-1	-1	-1	43	-1	14	-1	54	-1	17	57	38	-1	52	2	32	-1	23	63	-1	-1	22	25	5	12	-1
-1	-1	-1	-1	-1	12	43	-1	58	-1	19	55	53	23	64	25	-1	40	22	27	32	-1	10	51	-1	-1	13	-1	9	16	-1	-1	29	-1	-1	-1	-1	61	45	37	-1	-1	52	46	-1	-1	-1	-1	26	-1	-1	11	56	33	-1	39	-1	35	17	2	-1	-1	47	-1
8	13	-1	19	-1	29	50	21	1	4	62	-1	-1	-1	-1	-1	-1	7	42	-1	-1	-1	-1	-1	-1	-1	2	-1	39	-1	31	51	37	16	27	-1	56	-1	-1	33	43	58	47	-1	-1	-1	15	-1	22	17	-1	-1	-1	49	-1	45	26	-1	28	-1	20	10	-1	-1
-1	56	4	54	-1	-1	-1	43	-1	-1	45	-1	63	22	60	53	-1	-1	-1	-1	30	-1	28	-1	47	3	-1	59	-1	-1	37	-1	5	-1	35	21	32	51	-1	24	-1	7	14	23	-1	33	-1	19	-1	50	-1	-1	10	44	-1	-1	29	41	8	16	-1	-1	-1	64
-1	7	46	-1	-1	26	20	48	-1	-1	27	-1	18	64	17	-1	5	49	-1	-1	47	-1	41	-1	28	-1	57	56	-1	9	-1	-1	22	-1	25	-1	8	-1	-1	31	42	39	-1	-1	44	10	-1	-1	-1	-1	40	34	-1	-1	21	36	-1	-1	1	19	-1	-1	-1	12
30	12	-1	45	-1	-1	-1	-1	43	16	-1	20	39	-1	-1	57	22	-1	26	59	-1	-1	40	8	-1	-1	-1	34	7	-1	10	-1	41	-1	18	62	-1	-1	11	-1	-1	24	56	27	28	31	32	-1	29	55	4	15	-1	51	1	-1	-1	48	37	-1	-1	-1	52	35
62	35	38	-1	9	59	10	-1	-1	-1	42	-1	-1	5	36	-1	-1	-1	46	51	14	34	45	-1	23	43	64	22	1	-1	-1	17	44	19	-1	47	-1	-1	-1	-1	48	-1	-1	18	-1	-1	55	37	3	39	27	-1	-1	-1	-1	-1	49	6	-1	-1	30	-1	15	-1
-1	-1	22	27	63	28	37	40	6	-1	-1	54	-1	-1	29	-1	20	-1	-1	1	9	10	2	15	-1	-1	-1	-1	-1	35	-1	-1	-1	57	49	-1	-1	-1	50	-1	46	62	-1	45	-1	53	52	-1	42	-1	-1	-1	19	-1	33	43	60	-1	3	-1	-1	31	-1	-1
11	-1	-1	47	-1	17	-1	58	3	-1	21	-1	-1	-1	40	-1	-1	35	-1	-1	-1	37	-1	-1	-1	-1	-1	20	48	29	-1	60	55	1	45	-1	-1	-1	59	-1	-1	-1	36	-1	13	22	12	25	-1	-1	-1	62	57	28	-1	-1	-1	53	-1	-1	-1	56	4	-1
-1	-1	-1	-1	-1	1	39	41	-1	-1	-1	31	-1	-1	7	-1	55	-1	-1	50	-1	-1	27	21	54	-1	62	30	-1	-1	-1	-1	-1	-1	-1	-1	46	-1	-1	-1	5	-1	60	-1	51	57	63	-1	-1	-1	64	37	38	-1	16	-1	59	42	-1	-1	-1	-1	-1	34
-1	-1	-1	-1	-1	-1	-1	-1	40	-1	63	48	-1	-1	-1	-1	12	41	28	61	57	-1	-1	-1	-1	-1	-1	-1	43	49	-1	-1	-1	64	-1	-1	-1	-1	-1	-1	-1	-1	8	31	-1	-1	-1	59	-1	35	-1	58	26	-1	-1	19	-1	1	-1	25	-1	53	30	-1
45	22	52	-1	-1	-1	56	47	8	46	57	44	12	-1	14	42	17	26	50	-1	-1	-1	-1	34	29	-1	16	-1	13	59	-1	-1	-1	-1	37	-1	36	54	18	-1	53	20	-1	32	58	51	1	43	-1	15	-1	38	11	2	9	40	31	-1	-1	-1	28	64	-1	-1
-1	16	34	58	61	-1	51	-1	4	-1	54	-1	-1	55	37	-1	-1	31	32	42	-1	-1	38	44	53	-1	-1	-1	-1	-1	7	-1	35	-1	-1	59	-1	-1	14	-1	-1	-1	-1	60	-1	-1	-1	15	-1	5	-1	-1	29	-1	49	-1	-1	-1	-1	12	19	26	2	-1
-1	-1	63	-1	43	4	60	39	-1	31	-1	61	-1	-1	-1	-1	47	-1	-1	6	7	20	-1	-1	36	34	-1	-1	58	19	12	-1	17	-1	55	-1	-1	-1	16	-1	-1	30	49	38	-1	-1	13	54	-1	24	18	-1	32	-1	8	-1	52	57	59	-1	-1	-1	10	-1
-1	15	30	7	-1	40	41	50	-1	-1	-1	24	52	17	28	45	35	60	-1	10	29	-1	-1	-1	6	18	-1	31	32	62	-1	-1	-1	43	-1	-1	-1	26	-1	49	-1	-1	5	61	-1	39	-1	64	59	33	37	-1	-1	-1	47	48	-1	20	13	-1	38	8	-1	-1
31	46	28	12	2	18	-1	19	36	43	-1	-1	-1	10	-1	1	45	-1	-1	49	-1	59	21	52	38	-1	-1	5	22	44	-1	30	20	61	-1	-1	40	-1	-1	-1	24	-1	33	-1	-1	34	42	23	-1	-1	-1	-1	-1	-1	-1	16	35	-1	-1	48	-1	41	-1	51
38	-1	26	42	13	-1	59	-1	62	41	15	18	19	20	53	58	16	63	40	-1	-1	-1	-1	39	35	-1	28	-1	60	17	61	-1	11	-1	-1	-1	31	47	5	-1	27	14	21	37	48	3	57	-1	-1	-1	-1	-1	-1	-1	-1	-1	-1	22	-1	49	-1	-1	-1	-1
37	17	27	-1	8	-1	-1	29	7	50	-1	-1	-1	59	-1	38	-1	25	-1	-1	-1	-1	-1	43	2	-1	10	4	-1	-1	40	26	-1	-1	-1	-1	-1	-1	28	57	-1	-1	35	41	-1	-1	-1	-1	-1	12	23	-1	-1	-1	31	53	61	32	47	-1	-1	45	34	39
-1	64	-1	-1	30	58	-1	-1	-1	-1	-1	16	-1	-1	-1	12	29	-1	-1	-1	-1	-1	23	-1	19	10	-1	-1	45	-1	-1	59	27	31	-1	-1	42	-1	-1	39	60	-1	37	-1	6	35	-1	-1	-1	43	57	-1	52	36	-1	21	34	-1	50	20	-1	7	8	56
-1	43	-1	31	29	-1	63	-1	64	-1	50	-1	57	40	-1	18	-1	-1	-1	46	-1	-1	47	-1	3	-1	37	-1	28	22	36	-1	49	59	15	-1	-1	-1	-1	-1	33	23	-1	-1	9	-1	-1	27	-1	34	45	39	-1	-1	-1	61	-1	-1	-1	53	13	17	25	-1
-1	-1	-1	36	-1	-1	-1	26	59	19	17	39	61	52	-1	-1	-1	-1	-1	-1	1	-1	55	35	-1	-1	40	-1	34	13	-1	-1	-1	46	-1	29	25	48	-1	22	-1	28	43	-1	53	14	20	-1	-1	37	-1	-1	-1	-1	-1	-1	47	-1	30	45	-1	-1	-1	-1
-1	48	44	34	-1	-1	-1	-1	-1	1	-1	49	-1	32	-1	-1	53	27	25	-1	40	-1	61	59	-1	-1	-1	-1	-1	14	-1	-1	8	-1	7	12	-1	33	-1	-1	64	-1	-1	21	36	5	-1	58	13	56	-1	-1	4	19	62	-1	6	46	22	37	63	-1	-1	-1
5	-1	35	16	-1	-1	19	-1	-1	-1	43	-1	-1	-1	23	9	-1	51	-1	58	18	-1	36	31	-1	63	11	-1	-1	8	-1	-1	-1	-1	-1	-1	10	-1	37	26	32	-1	-1	15	45	-1	-1	39	50	-1	-1	30	-1	-1	53	-1	41	60	14	1	-1	2	-1	-1
-1	-1	-1	4	33	-1	-1	59	-1	54	41	47	-1	-1	31	-1	50	-1	49	-1	-1	26	22	13	12	9	-1	6	16	-1	-1	-1	61	20	44	-1	-1	-1	-1	38	-1	56	-1	-1	10	30	19	-1	5	-1	1	-1	27	-1	40	15	-1	11	64	-1	-1	-1	58	28
-1	-1	62	-1	-1	47	12	10	-1	42	13	-1	-1	-1	34	46	-1	14	-1	15	54	-1	6	-1	58	-1	-1	-1	-1	-1	-1	27	40	53	16	28	-1	21	-1	-1	-1	38	41	25	4	-1	-1	52	32	-1	-1	-1	-1	23	17	-1	3	36	26	-1	59	-1	5	-1
-1	28	-1	61	-1	15	-1	37	-1	-1	-1	-1	60	6	20	-1	43	-1	10	-1	21	-1	9	-1	41	47	4	23	-1	-1	-1	-1	-1	-1	14	-1	1	36	-1	56	-1	-1	-1	26	-1	46	-1	-1	-1	8	51	16	24	11	-1	63	48	-1	62	29	31	12	38	49
-1	-1	40	-1	19	61	-1	-1	-1	-1	25	26	36	42	46	37	-1	23	29	16	45	-1	1	24	-1	58	-1	-1	-1	-1	63	11	10	-1	-1	-1	27	-1	-1	20	2	52	-1	-1	34	48	-1	-1	-1	-1	50	53	54	8	-1	-1	18	43	39	-1	-1	6	-1	4
-1	-1	9	-1	-1	30	-1	62	11	-1	22	-1	-1	54	-1	-1	61	17	-1	47	-1	-1	-1	-1	-1	-1	53	14	-1	20	-1	-1	-1	-1	-1	-1	6	4	58	-1	-1	33	46	-1	35	-1	-1	18	-1	-1	55	-1	-1	-1	-1	-1	-1	-1	-1	38	-1	-1	-1	-1
-1	-1	31	64	-1	53	7	-1	20	15	33	1	-1	-1	58	48	28	-1	-1	-1	56	54	57	-1	-1	26	-1	-1	12	38	-1	-1	50	-1	-1	-1	2	-1	-1	-1	51	-1	-1	-1	-1	24	16	-1	49	40	3	27	-1	-1	-1	32	8	-1	-1	-1	-1	62	-1	-1
-1	11	-1	-1	-1	-1	32	45	-1	55	28	10	64	-1	-1	-1	-1	44	-1	-1	31	13	12	5	59	-1	-1	-1	-1	50	46	22	-1	-1	1	-1	52	-1	8	-1	61	9	15	39	60	23	-1	20	36	-1	-1	-1	7	4	41	-1	27	34	-1	-1	56	14	48	-1
13	23	-1	-1	-1	37	4	55	35	-1	-1	8	14	-1	-1	62	-1	19	-1	38	34	6	20	-1	-1	-1	-1	-1	61	18	3	52	-1	44	-1	26	-1	-1	15	30	54	-1	29	-1	-1	-1	31	7	-1	58	46	47	-1	-1	22	24	-1	-1	-1	59	-1	40	33	41
-1	27	33	-1	56	50	34	42	5	-1	-1	-1	38	-1	4	16	36	-1	3	-1	-1	-1	26	-1	9	-1	8	-1	21	-1	44	-1	18	-1	-1	46	54	14	-1	-1	25	-1	12	-1	-1	-1	-1	32	11	-1	-1	23	-1	61	-1	-1	1	31	10	-1	-1	29	37	-1
-1	-1	-1	26	16	-1	-1	-1	57	-1	-1	-1	27	-1	56	6	10	50	9	8	49	48	-1	-1	-1	-1	23	41	-1	15	-1	-1	-1	22	13	39	-1	-1	55	-1	-1	-1	38	40	62	-1	37	-1	34	42	-1	19	33	-1	-1	-1	11	-1	-1	-1	53	-1	-1	47
-1	-1	-1	-1	20	5	6	38	60	53	52	-1	2	18	41	21	42	-1	-1	-1	11	46	43	33	16	25	-1	-1	-1	51	1	-1	-1	-1	-1	48	-1	-1	-1	40	-1	-1	4	10	-1	-1	27	-1	30	-1	17	14	62	-1	12	29	-1	-1	-1	-1	26	-1	50	-1
-1	-1	-1	49	60	-1	40	-1	16	-1	-1	11	43	51	45	31	-1	-1	-1	-1	-1	-1	14	-1	-1	-1	-1	9	-1	-1	47	-1	-1	33	20	35	50	28	42	5	-1	46	24	59	32	62	-1	-1	-1	21	-1	-1	37	58	-1	1	54	27	-1	4	3	-1	63	48
-1	-1	51	-1	-1	-1	62	-1	-1	-1	26	-1	-1	-1	-1	61	58	-1	37	-1	10	-1	-1	-1	-1	-1	-1	-1	-1	-1	-1	-1	-1	-1	32	16	48	-1	-1	14	-1	-1	-1	-1	-1	8	21	42	60	-1	-1	49	23	-1	28	-1	-1	-1	31	5	34	-1	19	45
12	58	-1	-1	7	56	-1	61	10	57	-1	9	49	13	-1	-1	52	-1	-1	29	-1	30	-1	62	-1	32	42	-1	27	5	-1	-1	-1	8	-1	-1	41	-1	22	-1	55	54	-1	44	19	-1	-1	-1	39	63	36	24	15	26	-1	-1	21	-1	-1	-1	-1	-1	-1	53
41	-1	-1	53	48	22	-1	-1	37	36	-1	25	20	62	-1	64	2	-1	8	13	27	-1	44	45	-1	-1	-1	-1	-1	-1	-1	1	63	7	-1	15	-1	60	-1	-1	23	-1	9	52	49	38	-1	34	61	18	-1	56	43	-1	42	-1	-1	-1	-1	-1	-1	24	55	11
43	-1	-1	44	38	21	1	35	-1	5	-1	-1	56	27	-1	15	59	20	19	33	42	-1	-1	12	25	-1	-1	28	51	-1	24	-1	2	18	29	-1	-1	-1	-1	23	-1	-1	-1	16	14	41	-1	-1	-1	-1	53	-1	-1	-1	-1	22	-1	-1	49	46	52	-1	64	40
36	19	24	-1	-1	-1	-1	-1	-1	33	35	-1	-1	-1	39	52	-1	43	-1	48	26	-1	5	-1	14	60	38	16	-1	-1	-1	-1	53	51	-1	9	-1	-1	12	58	4	47	-1	2	-1	27	-1	-1	40	46	31	-1	13	-1	-1	-1	44	37	7	8	-1	22	-1	-1
33	-1	20	37	-1	45	-1	-1	46	48	-1	42	-1	-1	-1	54	-1	-1	-1	-1	-1	-1	51	-1	63	2	-1	-1	-1	26	21	-1	13	-1	-1	-1	62	59	17	19	-1	-1	40	56	-1	28	60	-1	64	3	32	-1	-1	-1	4	-1	-1	-1	61	-1	12	-1	-1	1
42	-1	16	-1	-1	-1	-1	32	-1	-1	18	38	55	21	59	-1	-1	46	57	-1	63	-1	60	-1	-1	-1	-1	19	-1	-1	41	49	3	-1	26	1	45	43	-1	61	29	-1	64	36	33	37	-1	6	-1	62	30	25	17	5	-1	-1	-1	-1	58	35	47	-1	-1	50
64 
26 41 8 39
41 14 14 56
27 48 56 3
18 56 14 50
21 36 60 7
20 15 60 35
30 63 1 13
35 21 50 41
17 51 32 44
23 64 51 54
19 10 27 22
5 3 32 14
38 15 23 18
40 22 28 3
17 41 24 61
53 33 27 1
55 26 9 31
6 45 33 61
51 59 23 27
26 56 22 21
33 59 55 41
40 53 4 50
44 39 63 32
33 37 50 25
46 50 25 14
60 2 38 45
53 26 63 34
45 10 50 32
23 14 12 50
49 27 17 57
19 43 15 32
6 11 33 6
5 37 33 23
25 44 30 1
34 5 59 23
5 18 55 6
11 11 59 28
12 15 10 56
35 16 56 28
22 54 4 58
43 49 51 42
50 63 48 32
16 12 2 22
33 2 2 16
32 30 27 63
8 48 31 56
35 41 63 15
24 32 3 14
56 41 50 2
3 29 7 46
37 52 30 10
35 46 46 60
18 48 64 24
45 56 43 28
34 49 27 62
57 18 8 30
58 57 43 63
29 12 18 61
45 46 15 53
4 10 59 60
51 36 34 51
1 21 26 18
62 48 54 45
1 18 14 35
